c Generated map
c Size: 8 * 8, weights in range: 1 to 10, walls: False, with ratio 0.0
c dim 6 of 10
c
p sp 64 112
c graph contains 64 nodes and 112 arcs
c
a 1 9 8
a 9 1 8
a 1 2 10
a 2 1 10
a 2 10 3
a 10 2 3
a 2 3 9
a 3 2 9
a 3 11 10
a 11 3 10
a 3 4 7
a 4 3 7
a 4 12 4
a 12 4 4
a 4 5 2
a 5 4 2
a 5 13 10
a 13 5 10
a 5 6 2
a 6 5 2
a 6 14 10
a 14 6 10
a 6 7 8
a 7 6 8
a 7 15 2
a 15 7 2
a 7 8 2
a 8 7 2
a 8 16 8
a 16 8 8
a 9 17 8
a 17 9 8
a 9 10 3
a 10 9 3
a 10 18 9
a 18 10 9
a 10 11 7
a 11 10 7
a 11 19 6
a 19 11 6
a 11 12 7
a 12 11 7
a 12 20 2
a 20 12 2
a 12 13 10
a 13 12 10
a 13 21 10
a 21 13 10
a 13 14 7
a 14 13 7
a 14 22 3
a 22 14 3
a 14 15 3
a 15 14 3
a 15 23 8
a 23 15 8
a 15 16 9
a 16 15 9
a 16 24 1
a 24 16 1
a 17 25 9
a 25 17 9
a 17 18 8
a 18 17 8
a 18 26 4
a 26 18 4
a 18 19 4
a 19 18 4
a 19 27 9
a 27 19 9
a 19 20 2
a 20 19 2
a 20 28 3
a 28 20 3
a 20 21 3
a 21 20 3
a 21 29 9
a 29 21 9
a 21 22 5
a 22 21 5
a 22 30 8
a 30 22 8
a 22 23 10
a 23 22 10
a 23 31 5
a 31 23 5
a 23 24 10
a 24 23 10
a 24 32 2
a 32 24 2
a 25 33 3
a 33 25 3
a 25 26 9
a 26 25 9
a 26 34 1
a 34 26 1
a 26 27 5
a 27 26 5
a 27 35 5
a 35 27 5
a 27 28 7
a 28 27 7
a 28 36 1
a 36 28 1
a 28 29 1
a 29 28 1
a 29 37 8
a 37 29 8
a 29 30 7
a 30 29 7
a 30 38 1
a 38 30 1
a 30 31 8
a 31 30 8
a 31 39 5
a 39 31 5
a 31 32 8
a 32 31 8
a 32 40 5
a 40 32 5
a 33 41 3
a 41 33 3
a 33 34 10
a 34 33 10
a 34 42 6
a 42 34 6
a 34 35 4
a 35 34 4
a 35 43 10
a 43 35 10
a 35 36 1
a 36 35 1
a 36 44 1
a 44 36 1
a 36 37 9
a 37 36 9
a 37 45 2
a 45 37 2
a 37 38 10
a 38 37 10
a 38 46 1
a 46 38 1
a 38 39 9
a 39 38 9
a 39 47 10
a 47 39 10
a 39 40 5
a 40 39 5
a 40 48 7
a 48 40 7
a 41 49 8
a 49 41 8
a 41 42 10
a 42 41 10
a 42 50 3
a 50 42 3
a 42 43 10
a 43 42 10
a 43 51 3
a 51 43 3
a 43 44 5
a 44 43 5
a 44 52 9
a 52 44 9
a 44 45 9
a 45 44 9
a 45 53 4
a 53 45 4
a 45 46 2
a 46 45 2
a 46 54 9
a 54 46 9
a 46 47 10
a 47 46 10
a 47 55 1
a 55 47 1
a 47 48 10
a 48 47 10
a 48 56 1
a 56 48 1
a 49 57 2
a 57 49 2
a 49 50 5
a 50 49 5
a 50 58 3
a 58 50 3
a 50 51 6
a 51 50 6
a 51 59 2
a 59 51 2
a 51 52 2
a 52 51 2
a 52 60 10
a 60 52 10
a 52 53 9
a 53 52 9
a 53 61 10
a 61 53 10
a 53 54 4
a 54 53 4
a 54 62 1
a 62 54 1
a 54 55 9
a 55 54 9
a 55 63 6
a 63 55 6
a 55 56 5
a 56 55 5
a 56 64 6
a 64 56 6
a 57 58 8
a 58 57 8
a 58 59 5
a 59 58 5
a 59 60 2
a 60 59 2
a 60 61 8
a 61 60 8
a 61 62 4
a 62 61 4
a 62 63 7
a 63 62 7
a 63 64 6
a 64 63 6
